benchmarks_CP/INST_64x64/50/inst64x64_50_52.dzn
S=8;
start=[|
35,	-1,	-1,	-1,	-1,	16,	-1,	32,	37,	-1,	29,	48,	38,	42,	-1,	7,	-1,	-1,	-1,	3,	33,	20,	-1,	-1,	-1,	10,	15,	-1,	43,	23,	62,	2,	4,	45,	27,	59,	-1,	-1,	64,	39,	50,	-1,	-1,	28,	-1,	-1,	34,	49,	57,	-1,	18,	12,	-1,	-1,	11,	56,	-1,	-1,	-1,	-1,	31,	58,	26,	-1|
-1,	43,	-1,	-1,	4,	2,	21,	48,	-1,	-1,	62,	-1,	20,	-1,	12,	-1,	-1,	1,	47,	30,	-1,	11,	-1,	-1,	-1,	6,	-1,	26,	19,	36,	-1,	28,	18,	-1,	-1,	-1,	-1,	-1,	54,	-1,	-1,	51,	25,	10,	-1,	46,	31,	17,	-1,	15,	-1,	49,	40,	33,	3,	5,	-1,	22,	-1,	-1,	-1,	-1,	24,	64|
-1,	7,	-1,	-1,	-1,	-1,	-1,	20,	31,	-1,	27,	59,	64,	-1,	15,	32,	23,	-1,	52,	-1,	-1,	12,	49,	-1,	33,	29,	4,	14,	58,	-1,	57,	25,	13,	-1,	-1,	-1,	28,	-1,	40,	-1,	-1,	-1,	-1,	-1,	18,	-1,	-1,	-1,	-1,	-1,	-1,	16,	39,	30,	-1,	-1,	-1,	-1,	10,	60,	-1,	9,	-1,	-1|
-1,	-1,	62,	37,	-1,	-1,	29,	-1,	17,	-1,	60,	19,	41,	11,	-1,	-1,	-1,	-1,	51,	-1,	9,	21,	57,	31,	13,	3,	-1,	40,	49,	22,	52,	-1,	-1,	-1,	12,	36,	-1,	-1,	10,	34,	-1,	-1,	39,	6,	-1,	59,	-1,	-1,	-1,	-1,	-1,	47,	20,	1,	-1,	2,	-1,	43,	35,	-1,	-1,	23,	4,	53|
-1,	-1,	-1,	-1,	-1,	-1,	-1,	-1,	-1,	26,	-1,	-1,	-1,	-1,	-1,	-1,	-1,	-1,	19,	14,	-1,	-1,	-1,	-1,	-1,	-1,	44,	-1,	-1,	-1,	-1,	51,	63,	15,	53,	-1,	57,	2,	24,	-1,	-1,	32,	-1,	62,	-1,	29,	-1,	-1,	-1,	-1,	-1,	-1,	48,	22,	-1,	7,	-1,	-1,	20,	5,	-1,	40,	36,	-1|
50,	27,	-1,	42,	-1,	40,	-1,	-1,	56,	-1,	45,	36,	-1,	-1,	58,	44,	2,	34,	-1,	-1,	-1,	48,	-1,	29,	-1,	24,	-1,	61,	-1,	-1,	9,	-1,	-1,	11,	-1,	-1,	35,	-1,	-1,	31,	20,	-1,	30,	13,	-1,	4,	-1,	3,	-1,	-1,	-1,	-1,	19,	-1,	-1,	-1,	18,	-1,	57,	51,	14,	-1,	15,	17|
-1,	1,	-1,	54,	-1,	14,	49,	-1,	51,	28,	53,	9,	4,	24,	39,	43,	-1,	10,	63,	22,	-1,	36,	-1,	-1,	-1,	64,	-1,	-1,	7,	11,	47,	-1,	-1,	-1,	55,	6,	20,	3,	62,	30,	-1,	-1,	16,	-1,	12,	52,	-1,	2,	-1,	-1,	-1,	8,	50,	-1,	-1,	-1,	-1,	-1,	-1,	13,	-1,	41,	38,	27|
-1,	31,	61,	-1,	-1,	30,	9,	-1,	-1,	-1,	3,	-1,	1,	5,	25,	2,	-1,	4,	40,	-1,	58,	-1,	38,	54,	-1,	-1,	63,	-1,	-1,	60,	20,	53,	-1,	51,	-1,	43,	52,	48,	-1,	-1,	-1,	35,	41,	-1,	26,	-1,	-1,	56,	-1,	-1,	59,	29,	-1,	-1,	37,	23,	-1,	-1,	-1,	47,	-1,	-1,	-1,	-1|
57,	25,	-1,	15,	-1,	-1,	-1,	17,	29,	48,	-1,	3,	-1,	-1,	-1,	40,	28,	43,	49,	8,	44,	-1,	-1,	-1,	59,	2,	-1,	11,	41,	52,	36,	47,	-1,	54,	45,	-1,	-1,	-1,	30,	38,	4,	14,	63,	16,	21,	18,	51,	-1,	22,	-1,	-1,	-1,	-1,	42,	34,	-1,	-1,	-1,	-1,	64,	-1,	-1,	23,	-1|
12,	24,	-1,	35,	18,	-1,	-1,	-1,	47,	-1,	-1,	43,	-1,	46,	14,	17,	32,	13,	-1,	-1,	-1,	-1,	31,	-1,	-1,	-1,	-1,	-1,	-1,	9,	-1,	-1,	11,	-1,	-1,	-1,	61,	19,	33,	29,	-1,	20,	2,	-1,	-1,	45,	-1,	40,	-1,	-1,	-1,	-1,	60,	-1,	1,	51,	-1,	-1,	8,	-1,	-1,	25,	57,	-1|
-1,	-1,	42,	9,	2,	-1,	-1,	-1,	-1,	-1,	-1,	11,	63,	-1,	13,	-1,	-1,	-1,	-1,	-1,	-1,	19,	-1,	53,	48,	62,	-1,	46,	-1,	25,	30,	-1,	27,	-1,	34,	-1,	58,	26,	-1,	-1,	39,	24,	-1,	44,	61,	50,	33,	-1,	-1,	-1,	-1,	59,	37,	28,	-1,	47,	-1,	-1,	55,	6,	43,	-1,	-1,	-1|
32,	5,	-1,	-1,	45,	64,	-1,	13,	-1,	-1,	-1,	-1,	-1,	-1,	-1,	-1,	47,	-1,	58,	-1,	12,	2,	26,	-1,	-1,	27,	39,	19,	44,	55,	49,	-1,	-1,	-1,	-1,	8,	-1,	-1,	53,	-1,	10,	15,	-1,	-1,	34,	-1,	-1,	46,	-1,	61,	30,	33,	41,	18,	-1,	-1,	60,	9,	50,	-1,	42,	63,	22,	-1|
23,	-1,	-1,	46,	30,	19,	51,	-1,	58,	-1,	34,	22,	-1,	8,	-1,	64,	39,	27,	-1,	61,	-1,	-1,	-1,	-1,	-1,	1,	-1,	-1,	-1,	6,	-1,	17,	60,	49,	-1,	-1,	-1,	-1,	-1,	52,	-1,	9,	35,	-1,	-1,	-1,	48,	-1,	24,	53,	-1,	50,	31,	11,	-1,	32,	4,	62,	-1,	-1,	-1,	45,	-1,	-1|
-1,	-1,	50,	38,	8,	55,	4,	-1,	-1,	-1,	33,	57,	18,	-1,	-1,	9,	1,	59,	25,	-1,	-1,	-1,	34,	35,	24,	-1,	29,	64,	-1,	-1,	51,	-1,	48,	-1,	62,	-1,	-1,	-1,	32,	-1,	-1,	-1,	54,	27,	-1,	-1,	17,	-1,	12,	63,	21,	5,	26,	52,	2,	-1,	53,	10,	47,	16,	11,	13,	46,	61|
-1,	48,	47,	33,	-1,	58,	44,	29,	52,	-1,	16,	1,	-1,	4,	10,	-1,	50,	37,	-1,	11,	46,	7,	-1,	-1,	-1,	61,	14,	53,	-1,	-1,	-1,	-1,	25,	-1,	-1,	-1,	-1,	-1,	57,	55,	36,	23,	6,	22,	41,	32,	60,	-1,	-1,	-1,	-1,	19,	49,	-1,	-1,	17,	38,	-1,	-1,	-1,	35,	-1,	-1,	30|
-1,	56,	-1,	61,	-1,	27,	62,	14,	-1,	-1,	-1,	39,	-1,	7,	53,	25,	-1,	-1,	60,	17,	45,	6,	41,	63,	28,	35,	22,	-1,	38,	50,	10,	-1,	-1,	47,	-1,	51,	44,	-1,	23,	-1,	13,	64,	11,	58,	-1,	55,	-1,	43,	-1,	-1,	36,	-1,	15,	4,	-1,	16,	49,	54,	-1,	52,	-1,	-1,	33,	20|
-1,	-1,	-1,	-1,	61,	-1,	3,	-1,	-1,	30,	-1,	17,	-1,	-1,	-1,	-1,	-1,	-1,	46,	-1,	-1,	49,	64,	-1,	-1,	16,	-1,	-1,	-1,	54,	22,	7,	28,	-1,	-1,	24,	-1,	-1,	-1,	-1,	59,	43,	-1,	12,	25,	10,	2,	-1,	-1,	58,	-1,	45,	-1,	39,	-1,	-1,	1,	53,	-1,	62,	-1,	-1,	-1,	-1|
-1,	-1,	35,	-1,	11,	-1,	54,	-1,	-1,	-1,	-1,	34,	-1,	-1,	-1,	28,	40,	51,	-1,	-1,	63,	-1,	-1,	-1,	-1,	-1,	36,	57,	-1,	46,	58,	26,	29,	-1,	-1,	-1,	-1,	55,	-1,	-1,	-1,	30,	-1,	-1,	-1,	31,	53,	-1,	23,	-1,	17,	44,	14,	43,	61,	-1,	37,	-1,	48,	4,	-1,	-1,	-1,	10|
53,	10,	46,	-1,	14,	-1,	25,	-1,	40,	3,	58,	-1,	-1,	15,	-1,	-1,	34,	19,	-1,	-1,	56,	1,	7,	-1,	-1,	-1,	11,	-1,	29,	-1,	17,	24,	6,	64,	51,	5,	38,	43,	61,	-1,	33,	60,	50,	35,	-1,	44,	62,	-1,	-1,	-1,	22,	31,	52,	63,	30,	20,	47,	39,	-1,	-1,	-1,	55,	-1,	2|
-1,	59,	-1,	-1,	-1,	47,	63,	-1,	-1,	-1,	54,	49,	11,	43,	-1,	-1,	13,	12,	55,	45,	-1,	-1,	-1,	61,	-1,	-1,	-1,	28,	-1,	8,	-1,	-1,	-1,	-1,	30,	44,	40,	57,	17,	18,	41,	-1,	-1,	34,	-1,	27,	24,	-1,	19,	4,	10,	26,	-1,	-1,	-1,	33,	-1,	-1,	29,	15,	58,	-1,	6,	14|
-1,	-1,	15,	-1,	-1,	-1,	40,	60,	22,	7,	-1,	-1,	-1,	9,	51,	56,	16,	5,	-1,	-1,	21,	47,	-1,	41,	-1,	-1,	-1,	59,	-1,	-1,	44,	63,	-1,	4,	10,	-1,	-1,	-1,	46,	-1,	54,	-1,	-1,	18,	11,	-1,	-1,	-1,	62,	2,	-1,	-1,	12,	-1,	-1,	-1,	17,	45,	3,	24,	-1,	-1,	-1,	-1|
-1,	30,	-1,	18,	43,	33,	-1,	27,	-1,	-1,	-1,	-1,	44,	61,	59,	-1,	-1,	-1,	17,	10,	50,	-1,	54,	24,	-1,	-1,	-1,	-1,	-1,	20,	35,	-1,	3,	37,	-1,	-1,	-1,	-1,	2,	12,	1,	13,	14,	-1,	-1,	-1,	5,	52,	-1,	-1,	15,	53,	47,	-1,	-1,	34,	-1,	63,	26,	-1,	40,	-1,	19,	51|
-1,	20,	-1,	-1,	17,	-1,	48,	52,	53,	-1,	41,	-1,	55,	45,	-1,	-1,	-1,	-1,	23,	-1,	6,	42,	-1,	-1,	-1,	-1,	47,	-1,	18,	64,	2,	-1,	31,	-1,	-1,	50,	19,	63,	34,	1,	51,	57,	-1,	4,	-1,	26,	15,	-1,	32,	16,	56,	-1,	9,	40,	-1,	28,	-1,	-1,	-1,	-1,	-1,	44,	54,	-1|
-1,	-1,	49,	51,	-1,	-1,	32,	55,	-1,	-1,	-1,	10,	-1,	-1,	6,	52,	15,	-1,	29,	57,	-1,	-1,	-1,	-1,	12,	38,	-1,	-1,	-1,	-1,	-1,	19,	35,	-1,	-1,	-1,	-1,	13,	25,	-1,	46,	56,	20,	17,	42,	9,	8,	63,	-1,	37,	-1,	-1,	7,	-1,	60,	50,	30,	-1,	-1,	-1,	-1,	-1,	-1,	21|
-1,	-1,	-1,	49,	-1,	32,	38,	-1,	26,	-1,	10,	37,	-1,	-1,	-1,	31,	-1,	54,	-1,	9,	-1,	39,	61,	22,	-1,	44,	-1,	18,	36,	-1,	-1,	55,	-1,	50,	64,	-1,	-1,	-1,	-1,	-1,	48,	-1,	21,	-1,	43,	33,	-1,	45,	-1,	6,	52,	11,	-1,	-1,	16,	24,	-1,	-1,	-1,	58,	41,	53,	40,	63|
17,	-1,	21,	40,	33,	5,	45,	-1,	7,	-1,	-1,	-1,	-1,	-1,	-1,	-1,	38,	44,	-1,	-1,	13,	43,	-1,	-1,	-1,	57,	-1,	-1,	56,	-1,	24,	-1,	14,	-1,	-1,	-1,	32,	58,	-1,	-1,	9,	-1,	-1,	11,	-1,	-1,	36,	-1,	-1,	12,	-1,	-1,	-1,	-1,	-1,	4,	20,	59,	6,	-1,	55,	-1,	-1,	-1|
-1,	-1,	31,	22,	59,	51,	-1,	-1,	-1,	42,	43,	-1,	39,	-1,	-1,	4,	-1,	3,	57,	48,	35,	-1,	-1,	-1,	19,	-1,	-1,	-1,	11,	-1,	-1,	-1,	38,	-1,	28,	23,	-1,	-1,	55,	10,	56,	40,	-1,	-1,	-1,	47,	63,	30,	-1,	-1,	58,	7,	-1,	61,	29,	-1,	25,	-1,	-1,	-1,	8,	-1,	5,	-1|
-1,	-1,	55,	-1,	6,	35,	42,	30,	36,	-1,	24,	23,	61,	-1,	20,	62,	56,	-1,	-1,	-1,	59,	-1,	-1,	11,	-1,	63,	16,	-1,	-1,	-1,	-1,	-1,	15,	52,	18,	25,	39,	21,	12,	43,	64,	49,	7,	26,	-1,	1,	37,	-1,	33,	-1,	50,	-1,	2,	-1,	-1,	46,	13,	17,	-1,	31,	-1,	-1,	-1,	4|
-1,	-1,	-1,	-1,	-1,	44,	36,	43,	-1,	-1,	-1,	-1,	-1,	-1,	49,	-1,	-1,	40,	21,	1,	-1,	-1,	-1,	-1,	-1,	58,	-1,	-1,	-1,	37,	42,	-1,	-1,	-1,	-1,	-1,	29,	11,	5,	-1,	-1,	34,	-1,	-1,	-1,	13,	-1,	-1,	64,	47,	63,	-1,	-1,	25,	22,	-1,	46,	38,	19,	26,	-1,	-1,	-1,	-1|
-1,	-1,	-1,	56,	58,	-1,	-1,	-1,	1,	13,	11,	60,	47,	-1,	40,	-1,	63,	-1,	34,	51,	-1,	46,	10,	4,	6,	59,	-1,	-1,	-1,	21,	27,	-1,	49,	7,	61,	-1,	-1,	-1,	45,	9,	-1,	52,	-1,	5,	55,	-1,	-1,	-1,	-1,	-1,	62,	38,	-1,	-1,	42,	-1,	15,	48,	24,	43,	39,	-1,	-1,	-1|
48,	57,	20,	-1,	29,	-1,	24,	-1,	-1,	55,	32,	56,	9,	-1,	-1,	-1,	-1,	-1,	-1,	-1,	64,	8,	30,	-1,	43,	-1,	13,	-1,	51,	-1,	38,	34,	2,	3,	-1,	31,	-1,	6,	-1,	-1,	15,	-1,	42,	-1,	-1,	-1,	16,	41,	21,	-1,	1,	36,	54,	27,	-1,	-1,	62,	44,	-1,	-1,	12,	14,	47,	-1|
11,	-1,	-1,	63,	-1,	62,	-1,	-1,	-1,	-1,	44,	-1,	46,	51,	-1,	29,	24,	60,	12,	-1,	-1,	45,	36,	5,	-1,	-1,	7,	32,	-1,	-1,	3,	22,	-1,	-1,	56,	-1,	47,	-1,	-1,	16,	-1,	-1,	-1,	31,	59,	-1,	-1,	-1,	14,	57,	-1,	55,	-1,	-1,	26,	53,	10,	42,	61,	-1,	-1,	49,	-1,	-1|
33,	4,	-1,	48,	-1,	-1,	-1,	-1,	-1,	-1,	-1,	40,	7,	-1,	3,	-1,	-1,	-1,	31,	32,	-1,	-1,	43,	-1,	-1,	28,	41,	-1,	12,	19,	-1,	27,	-1,	10,	49,	-1,	62,	56,	-1,	-1,	-1,	61,	-1,	57,	-1,	35,	-1,	-1,	16,	22,	23,	-1,	11,	-1,	-1,	-1,	-1,	-1,	-1,	-1,	-1,	15,	-1,	37|
-1,	54,	43,	-1,	60,	-1,	-1,	31,	4,	-1,	22,	-1,	-1,	-1,	-1,	24,	37,	-1,	38,	-1,	-1,	-1,	46,	-1,	-1,	5,	-1,	35,	-1,	13,	-1,	1,	-1,	29,	44,	55,	-1,	16,	42,	-1,	49,	63,	12,	15,	-1,	39,	59,	51,	47,	-1,	-1,	30,	25,	-1,	-1,	-1,	-1,	21,	-1,	-1,	57,	-1,	9,	45|
-1,	38,	-1,	10,	-1,	-1,	-1,	51,	55,	-1,	57,	-1,	43,	-1,	-1,	15,	49,	64,	-1,	-1,	-1,	-1,	-1,	-1,	-1,	40,	-1,	-1,	37,	18,	-1,	29,	-1,	-1,	-1,	54,	34,	61,	52,	3,	-1,	8,	-1,	-1,	-1,	30,	20,	-1,	-1,	-1,	-1,	2,	28,	-1,	31,	-1,	58,	-1,	-1,	-1,	7,	-1,	1,	60|
49,	34,	56,	-1,	57,	37,	-1,	21,	-1,	-1,	18,	29,	-1,	-1,	62,	-1,	58,	-1,	30,	4,	22,	40,	59,	10,	-1,	-1,	52,	-1,	9,	32,	-1,	50,	47,	8,	-1,	-1,	64,	23,	20,	-1,	3,	-1,	31,	-1,	-1,	-1,	-1,	19,	-1,	51,	-1,	-1,	13,	-1,	-1,	-1,	-1,	-1,	-1,	14,	27,	38,	-1,	-1|
19,	62,	24,	-1,	-1,	42,	-1,	11,	34,	41,	25,	-1,	-1,	49,	32,	-1,	-1,	53,	-1,	56,	17,	23,	60,	15,	-1,	4,	-1,	-1,	-1,	-1,	-1,	64,	-1,	1,	-1,	-1,	14,	-1,	-1,	28,	2,	37,	-1,	46,	-1,	-1,	22,	38,	63,	-1,	-1,	21,	-1,	5,	59,	9,	-1,	-1,	30,	-1,	10,	-1,	-1,	43|
22,	32,	29,	-1,	-1,	9,	-1,	47,	14,	37,	1,	-1,	-1,	-1,	-1,	-1,	-1,	-1,	13,	35,	42,	-1,	-1,	-1,	45,	-1,	-1,	23,	-1,	17,	-1,	46,	43,	-1,	4,	-1,	-1,	18,	50,	-1,	-1,	41,	-1,	60,	27,	-1,	-1,	34,	-1,	-1,	20,	-1,	-1,	64,	-1,	-1,	3,	56,	-1,	-1,	-1,	8,	-1,	48|
52,	-1,	28,	7,	-1,	-1,	16,	-1,	-1,	-1,	9,	2,	-1,	-1,	42,	8,	-1,	-1,	33,	-1,	-1,	-1,	18,	12,	-1,	55,	-1,	-1,	-1,	-1,	60,	-1,	-1,	-1,	48,	-1,	53,	15,	-1,	35,	6,	-1,	-1,	32,	4,	64,	-1,	23,	10,	50,	46,	-1,	-1,	-1,	-1,	27,	-1,	-1,	44,	-1,	-1,	-1,	-1,	-1|
63,	-1,	12,	-1,	50,	-1,	27,	-1,	-1,	64,	-1,	-1,	-1,	-1,	61,	35,	-1,	-1,	-1,	19,	57,	-1,	1,	-1,	20,	8,	-1,	51,	-1,	59,	11,	14,	-1,	31,	-1,	32,	-1,	37,	-1,	60,	40,	-1,	-1,	33,	58,	17,	-1,	9,	-1,	-1,	-1,	52,	42,	-1,	-1,	-1,	-1,	-1,	28,	54,	-1,	-1,	-1,	13|
-1,	63,	-1,	-1,	23,	6,	47,	-1,	62,	54,	42,	61,	45,	-1,	57,	10,	-1,	17,	-1,	-1,	28,	-1,	4,	36,	21,	19,	58,	1,	-1,	51,	8,	-1,	50,	-1,	43,	18,	3,	-1,	-1,	-1,	-1,	-1,	-1,	25,	-1,	49,	9,	-1,	-1,	52,	2,	32,	16,	-1,	12,	-1,	7,	-1,	-1,	59,	-1,	-1,	-1,	-1|
-1,	-1,	-1,	52,	13,	43,	-1,	10,	-1,	36,	35,	64,	-1,	58,	-1,	-1,	-1,	-1,	-1,	12,	-1,	55,	37,	-1,	11,	-1,	9,	-1,	-1,	57,	46,	44,	-1,	-1,	-1,	-1,	-1,	-1,	-1,	-1,	-1,	-1,	1,	-1,	20,	-1,	-1,	-1,	-1,	7,	-1,	41,	-1,	31,	6,	-1,	-1,	32,	-1,	56,	-1,	-1,	-1,	24|
-1,	-1,	-1,	3,	24,	-1,	2,	-1,	-1,	17,	-1,	-1,	60,	-1,	-1,	34,	-1,	49,	14,	-1,	25,	-1,	29,	-1,	42,	12,	61,	-1,	-1,	-1,	-1,	-1,	-1,	57,	-1,	38,	54,	-1,	-1,	-1,	-1,	-1,	-1,	50,	23,	-1,	27,	4,	5,	19,	-1,	-1,	58,	-1,	10,	-1,	-1,	-1,	-1,	18,	-1,	48,	52,	39|
-1,	-1,	-1,	34,	20,	60,	-1,	1,	-1,	16,	28,	-1,	56,	-1,	11,	-1,	-1,	-1,	6,	39,	7,	51,	-1,	-1,	-1,	22,	-1,	-1,	26,	53,	55,	31,	45,	42,	-1,	-1,	-1,	-1,	-1,	25,	44,	29,	-1,	36,	10,	2,	-1,	62,	35,	-1,	-1,	-1,	64,	-1,	-1,	59,	-1,	-1,	-1,	41,	-1,	47,	58,	9|
-1,	-1,	54,	29,	-1,	-1,	58,	-1,	-1,	18,	14,	-1,	-1,	53,	-1,	-1,	9,	42,	35,	-1,	-1,	-1,	56,	1,	30,	-1,	-1,	-1,	-1,	33,	5,	6,	-1,	-1,	-1,	-1,	-1,	-1,	26,	44,	52,	-1,	-1,	19,	-1,	-1,	-1,	-1,	3,	62,	45,	-1,	-1,	-1,	-1,	-1,	36,	46,	-1,	-1,	25,	-1,	34,	28|
51,	33,	53,	-1,	-1,	-1,	26,	-1,	49,	1,	-1,	25,	-1,	-1,	52,	-1,	48,	11,	-1,	-1,	19,	-1,	-1,	-1,	-1,	20,	18,	-1,	-1,	28,	-1,	56,	-1,	27,	37,	7,	-1,	-1,	-1,	36,	60,	-1,	-1,	-1,	-1,	-1,	-1,	-1,	34,	30,	54,	-1,	-1,	-1,	-1,	-1,	-1,	29,	-1,	40,	44,	-1,	42,	62|
36,	-1,	-1,	-1,	7,	18,	19,	-1,	-1,	6,	-1,	-1,	8,	-1,	-1,	-1,	30,	45,	53,	62,	34,	-1,	-1,	58,	-1,	43,	3,	50,	-1,	-1,	41,	49,	10,	-1,	52,	64,	-1,	28,	-1,	14,	37,	-1,	15,	47,	16,	-1,	-1,	11,	60,	25,	26,	-1,	-1,	-1,	4,	-1,	-1,	1,	17,	-1,	-1,	12,	-1,	-1|
-1,	-1,	38,	5,	32,	-1,	28,	46,	-1,	-1,	-1,	21,	19,	-1,	-1,	27,	8,	-1,	18,	-1,	24,	59,	-1,	-1,	-1,	45,	-1,	10,	-1,	-1,	-1,	13,	40,	-1,	-1,	61,	6,	22,	-1,	48,	12,	-1,	-1,	-1,	35,	34,	30,	-1,	-1,	39,	57,	-1,	17,	-1,	-1,	-1,	54,	50,	63,	-1,	16,	-1,	49,	-1|
13,	-1,	-1,	43,	-1,	45,	8,	59,	61,	9,	-1,	-1,	-1,	-1,	22,	1,	42,	36,	-1,	53,	32,	-1,	-1,	56,	-1,	21,	-1,	-1,	63,	31,	12,	-1,	37,	19,	20,	-1,	-1,	50,	14,	-1,	16,	-1,	34,	64,	33,	15,	-1,	-1,	39,	18,	-1,	-1,	-1,	-1,	-1,	55,	40,	47,	25,	-1,	-1,	-1,	28,	29|
6,	-1,	-1,	-1,	-1,	49,	18,	40,	3,	-1,	-1,	31,	17,	14,	56,	-1,	-1,	-1,	-1,	34,	26,	-1,	2,	37,	-1,	-1,	-1,	-1,	60,	-1,	-1,	-1,	-1,	-1,	-1,	52,	63,	-1,	-1,	-1,	-1,	25,	5,	-1,	-1,	36,	1,	-1,	-1,	-1,	16,	-1,	27,	50,	-1,	13,	-1,	23,	-1,	45,	-1,	7,	35,	-1|
37,	-1,	-1,	24,	-1,	-1,	57,	64,	41,	-1,	-1,	-1,	-1,	-1,	-1,	63,	-1,	30,	16,	58,	-1,	-1,	-1,	60,	46,	-1,	-1,	52,	-1,	-1,	-1,	4,	-1,	28,	-1,	10,	31,	39,	6,	59,	-1,	-1,	8,	-1,	51,	-1,	23,	-1,	49,	56,	11,	-1,	32,	-1,	20,	-1,	-1,	-1,	-1,	3,	-1,	5,	-1,	-1|
-1,	-1,	3,	-1,	52,	23,	-1,	-1,	12,	19,	13,	-1,	28,	59,	-1,	-1,	-1,	-1,	9,	-1,	18,	-1,	-1,	43,	-1,	30,	2,	-1,	27,	-1,	50,	-1,	58,	26,	46,	-1,	1,	-1,	-1,	61,	-1,	38,	-1,	-1,	-1,	-1,	56,	-1,	54,	48,	-1,	-1,	5,	41,	-1,	-1,	24,	15,	-1,	57,	51,	6,	63,	-1|
-1,	-1,	32,	11,	-1,	12,	-1,	36,	57,	50,	-1,	-1,	-1,	-1,	43,	55,	14,	20,	-1,	-1,	1,	-1,	24,	38,	16,	25,	-1,	-1,	17,	44,	6,	-1,	22,	-1,	29,	33,	23,	51,	-1,	40,	45,	18,	-1,	-1,	46,	-1,	47,	31,	9,	34,	37,	-1,	-1,	-1,	28,	30,	41,	13,	59,	8,	-1,	54,	-1,	58|
-1,	50,	63,	44,	-1,	38,	56,	25,	-1,	53,	51,	32,	26,	-1,	-1,	-1,	31,	46,	11,	13,	10,	-1,	23,	8,	-1,	47,	-1,	49,	-1,	-1,	-1,	-1,	5,	62,	-1,	-1,	-1,	9,	-1,	42,	-1,	59,	-1,	55,	-1,	-1,	-1,	-1,	-1,	1,	14,	-1,	24,	58,	33,	-1,	-1,	-1,	36,	-1,	64,	37,	21,	-1|
54,	-1,	-1,	55,	42,	26,	-1,	19,	20,	33,	52,	-1,	49,	-1,	44,	-1,	-1,	47,	45,	-1,	5,	50,	62,	6,	39,	53,	43,	-1,	22,	1,	28,	-1,	-1,	-1,	25,	-1,	7,	41,	3,	15,	-1,	11,	13,	-1,	-1,	-1,	58,	27,	8,	17,	64,	57,	-1,	23,	21,	31,	-1,	18,	-1,	61,	-1,	-1,	-1,	16|
62,	35,	-1,	-1,	46,	48,	-1,	-1,	25,	-1,	-1,	-1,	54,	36,	8,	-1,	-1,	28,	-1,	49,	-1,	33,	63,	19,	9,	-1,	51,	58,	13,	45,	59,	-1,	-1,	44,	-1,	30,	16,	-1,	-1,	27,	43,	10,	-1,	-1,	-1,	-1,	6,	-1,	-1,	-1,	-1,	15,	-1,	2,	-1,	52,	-1,	-1,	31,	1,	-1,	-1,	56,	50|
43,	40,	-1,	59,	-1,	13,	10,	-1,	-1,	52,	-1,	-1,	-1,	56,	29,	49,	-1,	9,	-1,	25,	47,	53,	-1,	-1,	-1,	31,	6,	37,	-1,	15,	-1,	58,	54,	39,	3,	-1,	8,	62,	-1,	46,	-1,	-1,	-1,	41,	14,	-1,	61,	-1,	2,	-1,	-1,	42,	-1,	-1,	-1,	63,	32,	-1,	34,	-1,	24,	18,	-1,	-1|
-1,	-1,	-1,	-1,	63,	57,	-1,	39,	59,	-1,	-1,	-1,	-1,	48,	-1,	-1,	-1,	26,	-1,	42,	-1,	-1,	35,	7,	44,	-1,	28,	-1,	-1,	-1,	23,	-1,	-1,	5,	-1,	29,	-1,	-1,	-1,	-1,	17,	-1,	-1,	-1,	22,	-1,	-1,	10,	-1,	-1,	-1,	-1,	30,	-1,	46,	-1,	-1,	49,	16,	21,	54,	61,	-1,	6|
-1,	3,	-1,	32,	12,	-1,	14,	8,	45,	62,	-1,	58,	-1,	-1,	-1,	-1,	-1,	-1,	-1,	5,	-1,	27,	11,	-1,	-1,	26,	-1,	22,	46,	34,	53,	-1,	-1,	55,	-1,	-1,	49,	10,	37,	7,	42,	6,	59,	-1,	-1,	-1,	40,	44,	-1,	60,	19,	20,	-1,	35,	-1,	-1,	28,	52,	-1,	9,	-1,	-1,	2,	-1|
18,	44,	-1,	20,	47,	1,	-1,	-1,	35,	43,	-1,	12,	-1,	32,	-1,	-1,	-1,	-1,	-1,	-1,	-1,	10,	16,	-1,	5,	17,	27,	-1,	-1,	49,	-1,	54,	34,	2,	38,	58,	-1,	-1,	-1,	57,	-1,	46,	53,	21,	62,	-1,	-1,	-1,	-1,	3,	9,	14,	29,	-1,	52,	11,	50,	8,	37,	-1,	19,	59,	-1,	-1|
24,	19,	33,	36,	-1,	-1,	-1,	-1,	28,	-1,	-1,	13,	-1,	54,	60,	-1,	-1,	-1,	44,	2,	43,	-1,	58,	-1,	-1,	-1,	-1,	-1,	62,	4,	25,	-1,	52,	22,	-1,	56,	50,	-1,	-1,	-1,	26,	55,	-1,	-1,	-1,	7,	-1,	-1,	27,	45,	5,	51,	-1,	8,	-1,	61,	-1,	-1,	12,	63,	3,	57,	-1,	47|
56,	-1,	17,	-1,	-1,	-1,	31,	-1,	-1,	22,	20,	44,	-1,	-1,	-1,	11,	-1,	15,	-1,	60,	-1,	54,	45,	-1,	-1,	-1,	-1,	13,	-1,	63,	48,	30,	23,	40,	21,	27,	18,	-1,	16,	4,	-1,	36,	19,	9,	-1,	-1,	50,	-1,	28,	-1,	7,	-1,	59,	-1,	32,	-1,	35,	-1,	62,	-1,	-1,	-1,	-1,	-1|
5,	-1,	-1,	-1,	48,	7,	64,	2,	15,	-1,	6,	-1,	34,	21,	-1,	-1,	-1,	23,	61,	46,	49,	3,	13,	-1,	38,	-1,	-1,	47,	20,	39,	-1,	11,	-1,	-1,	60,	-1,	-1,	-1,	-1,	-1,	31,	12,	-1,	-1,	-1,	8,	52,	16,	37,	-1,	-1,	-1,	-1,	10,	-1,	54,	43,	-1,	40,	-1,	17,	29,	14,	-1|
28,	60,	30,	-1,	37,	22,	-1,	-1,	2,	5,	19,	-1,	-1,	10,	-1,	-1,	6,	8,	-1,	-1,	-1,	31,	48,	59,	40,	-1,	55,	-1,	-1,	-1,	61,	3,	32,	-1,	-1,	-1,	-1,	12,	-1,	11,	18,	27,	-1,	-1,	-1,	-1,	-1,	13,	-1,	-1,	33,	-1,	34,	49,	-1,	25,	-1,	20,	7,	-1,	45,	39,	-1,	46|];
