benchmarks_LEQ/INST_64x64/50/inst64x64_50_52.txt
8
1
-1	51	36	47	-1	16	-1	-1	-1	40	-1	-1	38	-1	46	7	-1	-1	-1	3	33	-1	53	-1	-1	10	15	-1	43	23	62	-1	-1	45	-1	-1	22	-1	-1	-1	50	5	9	28	-1	-1	34	-1	-1	24	-1	-1	44	-1	11	56	21	-1	-1	-1	-1	-1	26	19
-1	-1	59	-1	-1	-1	-1	48	-1	-1	-1	-1	-1	-1	12	-1	-1	1	47	30	-1	11	42	-1	8	6	-1	-1	19	36	34	28	18	-1	7	60	37	29	54	23	58	-1	-1	-1	-1	-1	31	17	-1	-1	-1	49	-1	-1	3	-1	44	-1	32	50	-1	52	24	-1
-1	-1	22	41	56	-1	-1	20	-1	-1	27	59	64	-1	-1	32	-1	62	-1	-1	-1	12	49	-1	33	29	-1	-1	58	42	57	-1	13	-1	19	-1	-1	38	40	-1	-1	-1	43	1	-1	-1	-1	36	-1	-1	-1	-1	-1	-1	35	-1	34	-1	10	60	2	9	-1	-1
58	18	-1	37	-1	-1	-1	-1	17	8	-1	-1	41	-1	50	33	-1	-1	-1	-1	9	21	57	-1	13	3	-1	-1	49	-1	52	-1	56	32	12	36	26	25	10	-1	-1	54	39	6	-1	59	7	55	-1	27	42	47	-1	1	14	-1	-1	43	35	46	-1	23	4	-1
-1	12	-1	-1	28	-1	33	-1	54	-1	49	-1	-1	-1	-1	23	-1	-1	19	14	60	-1	-1	46	31	-1	44	21	45	41	37	-1	63	15	-1	1	57	2	-1	-1	-1	-1	27	-1	-1	-1	-1	-1	-1	-1	38	4	-1	22	9	7	-1	16	20	-1	-1	-1	36	25
-1	27	-1	-1	-1	40	23	-1	-1	10	45	36	-1	22	58	44	-1	34	26	7	-1	48	6	-1	32	-1	59	61	-1	16	-1	-1	41	-1	-1	-1	35	-1	49	-1	-1	33	30	-1	37	-1	21	-1	-1	28	53	-1	-1	-1	63	-1	18	12	57	51	-1	1	-1	17
-1	1	-1	-1	44	14	49	57	51	28	-1	-1	4	-1	39	-1	59	-1	63	-1	-1	36	17	32	-1	-1	48	-1	7	-1	-1	-1	-1	-1	-1	6	20	3	-1	30	-1	-1	-1	-1	-1	52	45	-1	31	-1	-1	8	50	-1	-1	-1	-1	37	56	-1	-1	-1	-1	-1
-1	31	-1	-1	19	-1	-1	-1	18	-1	3	-1	1	-1	25	2	-1	4	-1	28	-1	13	38	54	-1	-1	63	-1	55	-1	-1	53	-1	-1	-1	-1	-1	-1	44	-1	-1	-1	41	14	26	-1	-1	56	17	-1	-1	-1	-1	-1	-1	-1	-1	33	49	47	62	11	-1	-1
-1	-1	-1	-1	-1	53	-1	17	-1	-1	61	3	50	-1	-1	-1	28	43	-1	8	44	24	33	9	-1	2	-1	11	41	52	-1	-1	20	54	45	13	12	7	-1	-1	-1	14	-1	-1	21	-1	-1	1	-1	-1	-1	-1	-1	-1	34	10	-1	-1	-1	64	-1	27	23	-1
12	-1	10	35	18	52	-1	-1	47	-1	21	-1	-1	46	14	17	-1	13	-1	38	16	30	31	-1	56	-1	-1	-1	4	9	26	-1	-1	-1	-1	28	-1	19	33	29	5	20	2	-1	-1	45	-1	40	58	-1	44	-1	-1	3	1	51	-1	-1	8	-1	48	25	-1	-1
-1	-1	-1	9	2	-1	60	-1	23	-1	-1	11	63	-1	13	45	10	57	4	-1	-1	-1	22	53	-1	62	32	46	-1	-1	-1	16	27	-1	34	15	-1	26	21	-1	39	-1	56	-1	-1	50	33	-1	-1	-1	-1	-1	37	28	-1	47	5	-1	55	6	-1	-1	-1	-1
32	-1	11	-1	-1	-1	43	-1	-1	56	31	54	-1	-1	-1	-1	-1	-1	58	23	12	-1	26	-1	-1	27	39	19	-1	-1	49	40	-1	16	-1	-1	-1	35	-1	17	10	-1	-1	52	34	3	29	-1	-1	61	-1	33	41	-1	-1	14	-1	9	-1	-1	-1	-1	22	-1
23	-1	-1	46	30	-1	51	-1	-1	2	34	-1	12	-1	-1	64	-1	-1	-1	61	-1	14	-1	-1	18	1	-1	33	-1	6	13	17	-1	49	41	37	-1	-1	-1	-1	-1	9	-1	59	-1	-1	-1	25	-1	53	43	50	-1	11	-1	-1	-1	62	-1	29	26	45	-1	-1
20	6	-1	-1	8	-1	-1	49	19	44	33	57	18	-1	-1	-1	1	-1	25	-1	40	56	34	-1	24	7	29	-1	-1	-1	51	-1	-1	-1	62	3	-1	36	-1	22	30	-1	-1	-1	31	37	17	-1	-1	-1	-1	5	26	52	-1	-1	53	-1	47	16	-1	13	46	61
59	-1	47	-1	-1	-1	-1	29	-1	-1	-1	1	-1	-1	-1	-1	-1	-1	-1	11	-1	7	20	62	-1	61	-1	-1	42	-1	43	21	25	-1	-1	39	9	-1	-1	-1	36	-1	-1	-1	41	32	-1	8	-1	-1	27	-1	49	-1	64	-1	-1	28	18	-1	35	-1	12	30
-1	-1	-1	-1	-1	-1	62	-1	-1	32	37	-1	59	-1	53	25	-1	-1	-1	17	45	-1	-1	-1	28	-1	22	-1	-1	-1	-1	12	-1	47	-1	-1	-1	42	23	-1	13	-1	11	58	-1	55	26	-1	29	9	36	-1	15	-1	57	16	-1	-1	-1	52	1	-1	-1	-1
4	-1	6	13	61	-1	3	42	5	-1	63	17	-1	18	19	-1	-1	-1	46	37	-1	49	64	14	60	-1	23	-1	32	54	22	7	28	21	-1	24	15	-1	11	20	59	-1	-1	-1	-1	10	-1	47	-1	58	35	-1	-1	39	8	41	1	53	38	-1	36	-1	-1	33
16	-1	35	12	11	24	54	56	27	60	-1	-1	-1	1	-1	-1	-1	51	-1	20	-1	-1	25	18	-1	13	36	-1	52	-1	58	26	29	-1	-1	62	-1	-1	-1	33	19	-1	49	-1	45	-1	53	6	23	-1	17	-1	14	-1	61	-1	-1	-1	-1	-1	-1	-1	8	-1
53	-1	46	57	-1	28	25	45	40	-1	58	8	37	15	16	12	-1	-1	59	36	-1	1	7	26	-1	41	-1	48	29	-1	-1	-1	-1	64	51	5	38	43	-1	-1	33	-1	50	35	-1	44	62	-1	18	-1	-1	-1	-1	-1	-1	-1	47	-1	9	-1	-1	55	-1	2
64	-1	2	-1	-1	-1	63	22	-1	31	-1	49	-1	-1	35	-1	13	12	-1	45	-1	9	-1	61	25	51	-1	28	-1	-1	-1	5	-1	23	-1	-1	-1	-1	-1	18	-1	-1	-1	34	36	-1	24	-1	-1	-1	10	26	46	38	48	-1	-1	60	-1	-1	-1	20	6	-1
-1	37	15	19	-1	-1	40	-1	22	7	39	20	-1	9	51	-1	16	-1	-1	-1	-1	-1	-1	-1	-1	-1	-1	59	50	30	-1	-1	26	4	10	42	-1	53	-1	49	54	-1	-1	18	-1	-1	28	-1	-1	-1	-1	-1	12	-1	-1	-1	-1	45	-1	-1	32	35	61	57
41	-1	-1	-1	43	-1	7	-1	-1	25	-1	-1	-1	61	59	48	-1	58	17	10	50	60	-1	24	55	39	45	6	21	-1	-1	9	-1	-1	-1	-1	56	8	2	-1	1	-1	14	-1	64	38	5	52	36	-1	-1	53	-1	-1	-1	-1	16	63	-1	28	40	-1	19	-1
-1	-1	58	-1	-1	-1	-1	-1	53	24	-1	-1	55	45	-1	-1	11	35	-1	33	6	-1	3	30	49	-1	47	-1	-1	-1	2	10	-1	60	-1	-1	-1	63	-1	1	-1	-1	-1	4	39	26	-1	-1	-1	-1	56	-1	-1	40	-1	28	-1	25	-1	-1	-1	44	54	59
44	39	49	-1	-1	-1	32	-1	-1	47	-1	-1	-1	23	-1	52	15	-1	29	57	-1	-1	28	-1	12	38	31	3	61	-1	-1	19	-1	-1	16	14	48	13	25	45	-1	-1	-1	-1	-1	9	8	-1	-1	37	-1	54	-1	59	60	50	-1	41	-1	-1	-1	34	11	-1
-1	-1	-1	-1	3	32	-1	-1	26	14	10	-1	5	30	-1	-1	25	-1	62	9	20	39	61	22	29	-1	-1	18	36	2	15	55	42	-1	-1	34	13	-1	27	-1	-1	-1	-1	-1	43	33	35	-1	59	-1	-1	11	56	60	16	24	-1	-1	1	-1	-1	-1	-1	-1
17	16	-1	-1	-1	5	-1	-1	7	-1	-1	41	-1	64	-1	19	-1	-1	-1	26	13	-1	15	-1	47	-1	-1	31	-1	61	-1	-1	14	48	-1	-1	32	-1	1	-1	-1	50	46	11	3	-1	36	-1	30	-1	39	-1	10	51	-1	4	20	-1	-1	27	-1	28	-1	-1
-1	-1	-1	22	59	-1	13	50	-1	42	43	15	39	27	54	4	-1	-1	57	48	35	16	14	-1	19	49	-1	-1	11	-1	1	-1	38	-1	28	23	-1	-1	55	-1	56	-1	-1	2	17	47	-1	30	20	32	-1	7	18	61	29	-1	25	64	45	36	8	21	-1	-1
10	8	55	-1	-1	-1	42	30	36	38	24	23	-1	-1	-1	62	-1	-1	28	-1	59	58	19	-1	53	63	-1	-1	48	5	-1	-1	-1	-1	18	-1	39	-1	12	-1	64	-1	7	26	54	1	37	-1	33	-1	-1	34	2	-1	44	-1	-1	-1	-1	-1	-1	3	51	4
-1	-1	39	60	-1	44	36	-1	48	12	-1	33	3	16	49	53	-1	-1	-1	-1	31	41	-1	-1	17	58	-1	-1	-1	-1	-1	23	57	35	54	20	29	11	5	-1	-1	34	51	24	6	-1	-1	-1	-1	-1	63	-1	-1	-1	-1	-1	-1	-1	-1	26	52	-1	-1	-1
2	14	18	-1	58	-1	-1	26	-1	-1	-1	-1	47	25	-1	22	63	-1	34	-1	29	46	-1	-1	6	-1	-1	-1	64	-1	-1	33	49	7	61	-1	-1	44	-1	-1	57	52	28	-1	-1	-1	12	32	-1	-1	62	38	3	17	-1	8	15	-1	-1	43	39	-1	16	-1
-1	57	-1	-1	29	-1	24	28	63	-1	-1	-1	9	-1	-1	-1	52	7	37	-1	64	8	30	17	43	60	13	-1	51	10	-1	34	2	3	-1	-1	46	6	59	26	15	22	-1	-1	-1	61	-1	-1	21	5	1	36	-1	-1	-1	49	-1	44	11	33	12	-1	47	-1
-1	-1	1	63	-1	-1	34	41	-1	35	44	52	46	-1	-1	-1	-1	-1	12	6	-1	45	36	5	-1	54	-1	32	28	-1	3	22	-1	33	-1	19	-1	4	-1	-1	-1	58	-1	31	-1	-1	-1	-1	-1	57	13	55	43	-1	26	-1	-1	42	61	-1	9	-1	37	18
-1	4	-1	48	-1	-1	-1	18	46	59	30	40	7	-1	3	50	36	29	-1	-1	-1	-1	-1	34	26	28	-1	-1	12	19	-1	-1	-1	10	-1	-1	-1	56	-1	63	-1	61	45	-1	5	35	13	-1	16	22	-1	39	-1	54	55	60	-1	2	-1	42	6	-1	-1	-1
14	-1	-1	-1	60	-1	17	31	-1	-1	22	28	-1	-1	27	-1	37	41	-1	-1	-1	-1	-1	48	2	5	-1	-1	10	13	-1	-1	-1	-1	44	-1	-1	-1	42	-1	49	-1	-1	-1	56	-1	-1	51	47	-1	34	-1	-1	36	-1	40	-1	-1	-1	-1	-1	62	9	-1
45	38	-1	10	53	-1	35	-1	55	-1	57	5	43	12	23	15	-1	64	27	63	11	62	9	47	22	-1	-1	-1	-1	18	-1	29	-1	13	-1	54	34	-1	-1	-1	-1	-1	26	42	-1	-1	20	48	-1	14	-1	-1	-1	6	31	19	58	4	-1	-1	7	-1	-1	-1
49	-1	56	6	-1	-1	-1	21	60	-1	18	-1	33	-1	62	16	-1	55	30	4	-1	40	59	-1	-1	42	52	-1	9	-1	-1	50	47	-1	-1	-1	-1	23	20	41	-1	44	-1	-1	-1	53	-1	-1	-1	-1	12	-1	-1	-1	7	35	-1	-1	5	14	27	38	39	26
19	62	24	26	40	-1	55	11	34	-1	25	47	13	-1	32	36	-1	53	7	56	17	23	-1	15	-1	-1	-1	44	6	-1	31	-1	51	-1	-1	12	-1	-1	39	-1	2	-1	-1	-1	-1	16	22	-1	63	8	3	21	33	-1	59	9	29	-1	-1	35	-1	50	-1	-1
22	-1	-1	2	-1	9	-1	-1	14	37	1	-1	-1	-1	63	-1	-1	-1	13	35	-1	28	51	16	45	-1	-1	23	-1	17	-1	-1	43	25	4	-1	30	18	-1	-1	7	-1	10	60	-1	11	55	-1	-1	38	20	58	61	-1	24	-1	3	56	-1	-1	-1	-1	59	-1
52	-1	-1	-1	-1	39	-1	-1	-1	51	9	2	-1	26	42	8	-1	24	-1	-1	3	-1	18	-1	62	55	-1	30	47	56	-1	61	59	-1	-1	-1	-1	-1	-1	-1	-1	-1	29	32	4	-1	14	23	-1	-1	-1	-1	-1	-1	-1	-1	63	-1	-1	-1	-1	-1	-1	31
-1	-1	12	-1	-1	15	-1	23	-1	-1	-1	38	-1	-1	61	-1	-1	-1	2	-1	-1	25	1	-1	20	8	-1	-1	3	-1	11	-1	-1	-1	26	-1	-1	-1	7	-1	-1	62	36	-1	-1	17	-1	9	-1	49	29	52	-1	53	41	-1	-1	55	28	54	47	-1	-1	-1
27	63	64	-1	23	-1	47	44	-1	-1	42	61	45	20	57	10	-1	-1	15	-1	28	-1	4	36	-1	-1	-1	-1	34	-1	8	60	50	-1	-1	18	-1	30	-1	56	-1	39	-1	-1	40	49	-1	-1	-1	52	-1	-1	-1	14	-1	-1	7	-1	-1	59	37	-1	53	38
-1	17	-1	-1	13	43	59	10	38	-1	-1	64	-1	58	4	5	60	33	50	12	2	-1	-1	-1	-1	48	-1	-1	-1	57	46	44	-1	-1	63	-1	51	-1	-1	47	8	-1	-1	-1	-1	28	18	54	-1	7	40	-1	-1	-1	6	22	-1	32	27	-1	21	-1	-1	-1
-1	11	-1	-1	-1	56	-1	62	-1	-1	-1	7	-1	13	-1	34	-1	-1	-1	-1	-1	44	29	20	42	12	61	36	59	47	-1	35	-1	57	1	38	54	32	-1	8	63	21	33	-1	23	6	27	4	5	-1	28	37	-1	46	10	-1	26	-1	51	-1	-1	48	52	39
30	15	-1	-1	-1	60	12	1	43	16	-1	-1	56	-1	-1	3	54	-1	6	39	-1	-1	-1	-1	-1	-1	-1	-1	-1	-1	-1	-1	-1	42	-1	-1	-1	5	19	25	44	-1	-1	-1	10	-1	-1	-1	-1	33	-1	18	64	24	-1	-1	8	57	14	41	61	-1	58	-1
55	49	-1	-1	21	8	-1	-1	39	-1	-1	50	15	-1	-1	-1	-1	42	-1	-1	61	57	-1	-1	-1	32	38	-1	40	-1	-1	-1	17	-1	-1	-1	60	-1	-1	44	-1	31	-1	19	-1	51	41	-1	-1	62	45	23	63	-1	27	-1	36	46	4	10	-1	-1	34	-1
-1	-1	-1	50	-1	61	-1	-1	49	1	12	25	-1	-1	52	-1	-1	11	-1	64	-1	-1	-1	-1	23	-1	-1	-1	-1	28	-1	-1	39	27	37	-1	-1	-1	-1	-1	60	-1	58	45	57	-1	3	-1	34	-1	-1	-1	-1	47	15	-1	-1	-1	2	-1	44	43	42	62
36	22	57	-1	7	18	19	-1	32	6	40	-1	8	29	48	59	-1	-1	53	-1	34	-1	27	58	-1	-1	3	50	-1	24	41	49	10	-1	-1	64	-1	-1	-1	14	37	-1	15	47	-1	-1	-1	11	60	25	26	-1	55	21	4	44	-1	-1	-1	20	-1	-1	31	-1
-1	-1	38	5	-1	4	-1	46	44	23	-1	21	19	33	-1	-1	8	52	-1	31	-1	59	-1	3	37	45	-1	-1	25	7	29	-1	40	20	58	-1	-1	22	15	48	-1	53	64	-1	-1	34	-1	-1	-1	-1	57	9	17	56	36	-1	54	-1	-1	55	-1	-1	-1	-1
13	58	-1	43	10	-1	-1	-1	-1	-1	-1	46	23	-1	22	-1	42	-1	48	-1	32	-1	52	56	3	21	-1	-1	63	-1	12	57	-1	-1	-1	49	2	50	14	24	-1	-1	-1	64	33	-1	-1	26	-1	-1	-1	-1	-1	44	51	55	-1	-1	-1	11	-1	17	-1	29
6	29	-1	28	-1	49	18	-1	3	58	48	-1	17	14	-1	-1	-1	21	-1	-1	26	-1	-1	37	61	11	64	24	-1	-1	33	-1	-1	-1	-1	-1	-1	-1	38	32	22	25	5	-1	-1	-1	-1	-1	-1	-1	-1	10	27	-1	53	-1	-1	-1	-1	-1	-1	-1	-1	12
37	47	-1	24	1	-1	-1	64	-1	29	15	45	-1	-1	21	63	-1	-1	-1	58	-1	-1	-1	60	-1	-1	-1	-1	35	-1	18	-1	55	28	-1	10	31	-1	6	59	62	-1	-1	48	51	14	-1	-1	-1	-1	11	-1	-1	-1	-1	42	9	-1	33	3	-1	-1	43	44
31	53	-1	-1	-1	-1	-1	33	12	19	-1	62	-1	59	-1	37	7	25	9	40	18	29	-1	43	10	-1	-1	-1	27	14	50	8	58	26	46	11	-1	34	4	-1	32	38	17	-1	-1	-1	-1	-1	54	-1	47	-1	-1	41	-1	36	24	15	-1	-1	51	-1	-1	-1
61	-1	32	-1	-1	-1	15	36	57	50	5	35	10	-1	43	55	14	20	3	-1	-1	64	-1	-1	16	-1	-1	-1	-1	-1	-1	-1	-1	-1	29	-1	-1	-1	56	40	-1	18	-1	49	46	-1	47	31	-1	-1	37	-1	4	19	28	30	-1	-1	-1	-1	-1	-1	62	-1
-1	-1	63	44	-1	38	-1	25	16	53	-1	-1	26	-1	7	6	31	46	-1	-1	10	-1	-1	8	34	-1	-1	-1	15	29	54	-1	-1	62	-1	57	-1	9	18	-1	28	-1	-1	-1	-1	-1	-1	-1	43	1	-1	3	-1	58	-1	-1	2	27	-1	48	64	-1	-1	-1
54	2	-1	55	-1	-1	30	-1	20	33	-1	24	49	34	44	-1	-1	47	-1	-1	-1	-1	-1	-1	-1	-1	-1	-1	-1	1	-1	37	-1	-1	25	48	-1	-1	-1	15	-1	-1	-1	63	-1	40	58	-1	8	-1	-1	57	35	23	-1	-1	-1	18	46	61	-1	-1	-1	-1
-1	-1	5	14	46	48	41	7	25	11	-1	-1	-1	-1	-1	-1	-1	28	39	49	-1	33	63	-1	-1	-1	51	58	13	45	-1	32	-1	-1	17	30	-1	64	-1	-1	-1	-1	-1	3	-1	12	6	53	26	-1	61	15	-1	2	-1	-1	55	34	-1	1	20	-1	56	-1
43	40	-1	59	27	13	-1	-1	-1	-1	23	55	-1	56	-1	-1	12	9	-1	25	-1	-1	-1	28	-1	31	-1	-1	1	15	-1	58	-1	-1	3	26	-1	62	36	46	35	45	60	-1	-1	5	61	33	2	-1	-1	-1	21	16	17	-1	32	11	34	-1	-1	-1	30	-1
9	-1	-1	-1	-1	-1	53	39	59	4	-1	18	24	-1	33	38	19	-1	32	42	41	34	-1	7	-1	56	-1	-1	8	-1	-1	-1	64	-1	14	-1	25	1	51	13	17	3	-1	-1	-1	20	11	10	-1	-1	31	40	-1	-1	46	58	-1	49	-1	-1	-1	-1	60	-1
-1	-1	-1	-1	-1	29	-1	8	-1	62	36	-1	25	-1	-1	-1	17	63	-1	5	-1	27	-1	-1	51	26	-1	-1	-1	-1	53	43	-1	55	24	-1	49	10	-1	-1	42	6	-1	-1	-1	-1	40	-1	-1	-1	-1	-1	-1	35	38	18	-1	52	13	-1	-1	4	-1	-1
18	-1	41	-1	-1	1	6	15	35	-1	-1	-1	-1	32	-1	61	-1	22	56	55	51	10	-1	-1	5	17	27	60	24	-1	45	-1	34	2	-1	58	42	-1	-1	-1	25	46	53	21	62	63	64	-1	13	-1	9	-1	-1	-1	52	11	50	-1	37	23	19	-1	-1	-1
-1	19	-1	36	-1	-1	11	38	-1	-1	17	-1	-1	-1	60	42	18	-1	44	-1	43	-1	-1	40	-1	9	21	29	62	4	-1	59	52	-1	6	-1	50	20	-1	-1	26	-1	23	30	49	7	32	-1	27	45	-1	-1	-1	-1	-1	-1	-1	31	-1	-1	-1	-1	-1	-1
56	42	-1	-1	-1	46	-1	-1	8	22	-1	44	53	3	-1	11	29	-1	-1	60	38	-1	45	-1	64	-1	-1	13	-1	-1	-1	-1	-1	-1	21	-1	-1	-1	-1	-1	-1	36	-1	9	2	43	-1	39	-1	41	7	-1	59	12	32	57	35	51	-1	25	5	-1	-1	-1
-1	55	26	-1	48	-1	64	2	-1	-1	-1	-1	-1	21	9	41	-1	23	-1	-1	-1	-1	13	-1	38	-1	-1	-1	-1	-1	-1	-1	-1	30	-1	-1	-1	45	-1	19	-1	12	-1	-1	1	8	-1	16	37	36	-1	-1	-1	-1	62	54	43	58	40	53	-1	29	14	42
28	60	30	23	37	22	50	-1	2	-1	19	-1	14	-1	1	-1	6	-1	36	21	62	-1	-1	-1	40	52	55	42	16	35	61	-1	32	63	15	9	17	12	43	-1	-1	-1	-1	-1	-1	-1	-1	-1	53	64	33	-1	34	-1	47	25	56	20	-1	44	-1	-1	-1	-1
64 
30 9 50 47
29 24 17 47
55 39 41 37
6 46 13 57
15 19 51 62
19 33 28 5
55 37 16 14
5 45 38 62
56 25 7 12
56 42 19 2
59 23 22 50
26 50 48 41
39 2 15 50
61 18 57 45
58 49 9 4
35 31 32 40
5 4 1 28
22 4 48 19
20 49 23 37
51 55 12 16
38 40 34 58
36 21 43 17
30 64 7 41
63 43 7 14
63 4 12 55
7 1 5 10
17 63 21 37
14 42 45 64
22 44 7 61
50 16 58 53
59 14 17 18
36 30 33 20
63 17 2 54
26 10 36 2
14 24 34 28
10 58 55 34
12 60 9 3
47 47 12 49
64 62 3 53
35 26 2 53
59 36 25 61
30 55 24 45
23 59 45 20
25 26 20 36
58 2 29 53
28 56 44 47
25 1 3 42
64 23 45 56
63 21 52 64
50 54 8 40
53 38 36 50
8 37 38 59
15 28 45 14
16 58 22 23
52 28 41 41
13 55 61 36
38 29 37 35
34 13 9 59
53 59 12 35
27 38 50 29
2 49 37 58
17 60 27 32
48 59 58 5
10 19 23 30
